c Generated map
c Size: 10 * 10, weights in range: 1 to 10, walls: True, with ratio 0.05
c dim 4 of 6
c
p sp 100 161
c graph contains 100 nodes and 161 arcs
c
a 1 11 1
a 11 1 1
a 1 2 7
a 2 1 7
a 2 12 6
a 12 2 6
a 2 3 5
a 3 2 5
a 3 13 2
a 13 3 2
a 3 4 3
a 4 3 3
a 4 14 8
a 14 4 8
a 4 5 6
a 5 4 6
a 5 6 3
a 6 5 3
a 6 16 7
a 16 6 7
a 6 7 10
a 7 6 10
a 7 17 4
a 17 7 4
a 7 8 1
a 8 7 1
a 8 18 10
a 18 8 10
a 8 9 5
a 9 8 5
a 9 19 7
a 19 9 7
a 9 10 1
a 10 9 1
a 10 20 10
a 20 10 10
a 11 21 8
a 21 11 8
a 11 12 3
a 12 11 3
a 12 22 1
a 22 12 1
a 12 13 8
a 13 12 8
a 13 23 5
a 23 13 5
a 13 14 2
a 14 13 2
a 14 24 8
a 24 14 8
a 16 17 9
a 17 16 9
a 17 27 8
a 27 17 8
a 17 18 5
a 18 17 5
a 18 28 8
a 28 18 8
a 18 19 10
a 19 18 10
a 19 29 4
a 29 19 4
a 19 20 5
a 20 19 5
a 20 30 8
a 30 20 8
a 21 31 7
a 31 21 7
a 21 22 7
a 22 21 7
a 22 32 2
a 32 22 2
a 22 23 1
a 23 22 1
a 23 33 8
a 33 23 8
a 23 24 10
a 24 23 10
a 24 34 3
a 34 24 3
a 24 25 1
a 25 24 1
a 25 35 6
a 35 25 6
a 27 37 6
a 37 27 6
a 27 28 10
a 28 27 10
a 28 38 3
a 38 28 3
a 28 29 6
a 29 28 6
a 29 39 10
a 39 29 10
a 29 30 7
a 30 29 7
a 30 40 10
a 40 30 10
a 31 41 6
a 41 31 6
a 31 32 5
a 32 31 5
a 32 42 5
a 42 32 5
a 32 33 10
a 33 32 10
a 33 43 5
a 43 33 5
a 33 34 2
a 34 33 2
a 34 44 5
a 44 34 5
a 34 35 7
a 35 34 7
a 35 45 8
a 45 35 8
a 35 36 9
a 36 35 9
a 36 46 6
a 46 36 6
a 36 37 8
a 37 36 8
a 37 47 10
a 47 37 10
a 37 38 4
a 38 37 4
a 38 48 5
a 48 38 5
a 38 39 7
a 39 38 7
a 39 49 1
a 49 39 1
a 39 40 3
a 40 39 3
a 40 50 3
a 50 40 3
a 41 51 1
a 51 41 1
a 41 42 8
a 42 41 8
a 42 52 3
a 52 42 3
a 42 43 9
a 43 42 9
a 43 44 4
a 44 43 4
a 44 54 7
a 54 44 7
a 44 45 4
a 45 44 4
a 45 46 3
a 46 45 3
a 46 56 7
a 56 46 7
a 46 47 3
a 47 46 3
a 47 57 10
a 57 47 10
a 47 48 4
a 48 47 4
a 48 58 10
a 58 48 10
a 48 49 7
a 49 48 7
a 49 59 4
a 59 49 4
a 49 50 10
a 50 49 10
a 50 60 2
a 60 50 2
a 51 61 7
a 61 51 7
a 51 52 7
a 52 51 7
a 52 62 4
a 62 52 4
a 54 64 5
a 64 54 5
a 56 66 7
a 66 56 7
a 56 57 5
a 57 56 5
a 57 67 2
a 67 57 2
a 57 58 4
a 58 57 4
a 58 68 9
a 68 58 9
a 58 59 8
a 59 58 8
a 59 69 7
a 69 59 7
a 59 60 9
a 60 59 9
a 60 70 6
a 70 60 6
a 61 71 7
a 71 61 7
a 61 62 3
a 62 61 3
a 62 72 5
a 72 62 5
a 62 63 6
a 63 62 6
a 63 73 2
a 73 63 2
a 63 64 7
a 64 63 7
a 64 74 7
a 74 64 7
a 64 65 8
a 65 64 8
a 65 75 3
a 75 65 3
a 65 66 2
a 66 65 2
a 66 76 2
a 76 66 2
a 66 67 7
a 67 66 7
a 67 77 1
a 77 67 1
a 67 68 9
a 68 67 9
a 68 78 3
a 78 68 3
a 68 69 7
a 69 68 7
a 69 79 3
a 79 69 3
a 69 70 5
a 70 69 5
a 70 80 2
a 80 70 2
a 71 81 7
a 81 71 7
a 71 72 2
a 72 71 2
a 72 82 10
a 82 72 10
a 72 73 5
a 73 72 5
a 73 83 10
a 83 73 10
a 73 74 2
a 74 73 2
a 74 84 7
a 84 74 7
a 74 75 6
a 75 74 6
a 75 85 6
a 85 75 6
a 75 76 3
a 76 75 3
a 76 86 6
a 86 76 6
a 76 77 4
a 77 76 4
a 77 87 5
a 87 77 5
a 77 78 1
a 78 77 1
a 78 88 5
a 88 78 5
a 78 79 9
a 79 78 9
a 79 89 10
a 89 79 10
a 79 80 6
a 80 79 6
a 80 90 10
a 90 80 10
a 81 91 8
a 91 81 8
a 81 82 6
a 82 81 6
a 82 92 5
a 92 82 5
a 82 83 1
a 83 82 1
a 83 93 3
a 93 83 3
a 83 84 6
a 84 83 6
a 84 94 10
a 94 84 10
a 84 85 10
a 85 84 10
a 85 86 10
a 86 85 10
a 86 96 7
a 96 86 7
a 86 87 9
a 87 86 9
a 87 97 4
a 97 87 4
a 87 88 5
a 88 87 5
a 88 98 6
a 98 88 6
a 88 89 2
a 89 88 2
a 89 99 3
a 99 89 3
a 89 90 3
a 90 89 3
a 90 100 10
a 100 90 10
a 91 92 8
a 92 91 8
a 92 93 5
a 93 92 5
a 93 94 1
a 94 93 1
a 96 97 6
a 97 96 6
a 97 98 9
a 98 97 9
a 98 99 4
a 99 98 4
a 99 100 9
a 100 99 9
